New structure
1.0
        8.0802032106         0.0000000000         0.0000000000
        0.0000000000         8.0802032106         0.0000000000
        0.0000000000         0.0000000000         8.0802032106
   Mg   Re Re Re Re  Ba   O
    4   1  1  1  1   8   24
Direct
     0.000000000         0.000000000         0.500000000 F F F
     0.000000000         0.500000000         0.000000000 F F F
     0.500000000         0.500000000         0.500000000 F F F
     0.500000000         0.000000000         0.000000000 F F F
     0.000000000         0.000000000         0.000000000 F F F
     0.000000000         0.500000000         0.500000000 F F F
     0.500000000         0.500000000         0.000000000 F F F
     0.500000000         0.000000000         0.500000000 F F F
     0.750000000         0.250000000         0.250000000 F F F
     0.250000000         0.750000000         0.750000000 F F F
     0.250000000         0.750000000         0.250000000 F F F
     0.750000000         0.250000000         0.750000000 F F F
     0.750000000         0.750000000         0.250000000 F F F
     0.250000000         0.250000000         0.750000000 F F F
     0.250000000         0.250000000         0.250000000 F F F
     0.750000000         0.750000000         0.750000000 F F F
     0.000000000         0.000000000         0.761600018 T T T
     0.000000000         0.000000000         0.238399982 T T T
     0.000000000         0.500000000         0.261600018 T T T
     0.000000000         0.500000000         0.738399982 T T T
     0.500000000         0.500000000         0.761600018 T T T
     0.500000000         0.500000000         0.238399982 T T T
     0.500000000         0.000000000         0.261600018 T T T
     0.500000000         0.000000000         0.738399982 T T T
     0.000000000         0.238299996         0.000000000 T T T
     0.000000000         0.761700034         0.000000000 T T T
     0.761700034         0.000000000         0.000000000 T T T
     0.238299996         0.000000000         0.000000000 T T T
     0.000000000         0.738299966         0.500000000 T T T
     0.000000000         0.261700004         0.500000000 T T T
     0.761700034         0.500000000         0.500000000 T T T
     0.238299996         0.500000000         0.500000000 T T T
     0.500000000         0.738299966         0.000000000 T T T
     0.500000000         0.261700004         0.000000000 T T T
     0.261700004         0.500000000         0.000000000 T T T
     0.738299966         0.500000000         0.000000000 T T T
     0.500000000         0.238299996         0.500000000 T T T
     0.500000000         0.761700034         0.500000000 T T T
     0.261700004         0.000000000         0.500000000 T T T
     0.738299966         0.000000000         0.500000000 T T T
